50
250 250 250 
139 103 69 
166 99 62 
88 74 177 
174 139 174 
128 109 70 
175 179 127 
62 82 147 
178 87 66 
121 77 111 
125 97 175 
73 84 92 
69 97 92 
122 159 141 
66 69 177 
111 118 86 
165 86 67 
71 83 156 
163 162 175 
67 132 73 
121 152 73 
68 150 121 
138 124 177 
141 105 125 
183 122 66 
171 63 111 
101 64 164 
103 95 121 
110 107 84 
184 158 128
85 97 62 
86 92 160 
127 155 62 
92 147 147 
106 97 73 
177 108 166 
164 150 171 
68 84 73 
62 151 127 
123 134 125 
158 178 85 
70 140 127 
173 117 166 
147 136 86 
141 145 111 
84 164 144 
144 141 174 
92 103 184 
156 98 147 
160 111 156 
127 131 123 
gcut4_3d
